{"lblp_lower": [631.9739738448778, 745.2179507010195, 782.1087987216043, 824.4990685133134, 839.6260694942674, 842.6624358974356, 843.9457692307689], "cuttingPlaneBendInfo": [{"tot_cut_value": 0, "TOT_gen_cut": 0, "tot_time_opt": 0, "max_time_opt": 0}, {"tot_cut_value": 0, "TOT_gen_cut": 0, "tot_time_opt": 0, "max_time_opt": 0}, {"tot_cut_value": 0, "TOT_gen_cut": 0, "tot_time_opt": 0, "max_time_opt": 0}, {"tot_cut_value": 0, "TOT_gen_cut": 0, "tot_time_opt": 0, "max_time_opt": 0}, {"tot_cut_value": 0, "TOT_gen_cut": 0, "tot_time_opt": 0, "max_time_opt": 0}, {"tot_cut_value": 0, "TOT_gen_cut": 0, "tot_time_opt": 0, "max_time_opt": 0}, {"tot_cut_value": 0, "TOT_gen_cut": 0, "tot_time_opt": 0, "max_time_opt": 0}], "time_compress": [0, 0, 0, 0, 0, 0, 0], "ub_lp": [1148.0, 1059.8700000000001, 932.5335714285715, 853.3366666666666, 847.479102564103, 845.6457692307695, 843.9457692307698], "prob_sizes_at_start": [{"timeGraph": 52, "ngGraph": 52}, {"timeGraph": 74, "ngGraph": 83}, {"timeGraph": 94, "ngGraph": 97}, {"timeGraph": 137, "ngGraph": 108}, {"timeGraph": 152, "ngGraph": 146}, {"timeGraph": 174, "ngGraph": 148}, {"timeGraph": 182, "ngGraph": 150}], "prob_sizes_after_compress": [{"timeGraph": 3, "ngGraph": 44}, {"timeGraph": 27, "ngGraph": 48}, {"timeGraph": 53, "ngGraph": 52}, {"timeGraph": 69, "ngGraph": 49}, {"timeGraph": 87, "ngGraph": 62}, {"timeGraph": 101, "ngGraph": 58}, {"timeGraph": 91, "ngGraph": 63}], "prob_sizes_after_split": [{"timeGraph": 74, "ngGraph": 83}, {"timeGraph": 94, "ngGraph": 97}, {"timeGraph": 137, "ngGraph": 108}, {"timeGraph": 152, "ngGraph": 146}, {"timeGraph": 174, "ngGraph": 148}, {"timeGraph": 182, "ngGraph": 150}, {"timeGraph": 120, "ngGraph": 98}], "did_compress": [true, true, true, true, true, true, true], "lp_time_project": [0.28516507148742676, 0.07785797119140625, 0.07132411003112793, 0.09120607376098633, 0.07756900787353516, 0.0655679702758789, 0.06317806243896484], "lp_time_LB": [0.011689901351928711, 0.015577077865600586, 0.01928997039794922, 0.028219938278198242, 0.03557181358337402, 0.03820610046386719, 0.03676629066467285], "ilp_time": [], "history_of_graphs_by_iter": [], "ROOT_LP_PRIOR_ADDING_CUTS": 843.9457692307689, "OUR_ilp_objective": 943.9999999999999, "OUR_MIP_Lower_Bound": 943.9999999999999, "OUR_ilp_time": 0.5425286293029785, "OUR_gurobi_MILP_str": "Gurobi Optimizer version 12.0.1 build v12.0.1rc0 (mac64[arm] - Darwin 24.5.0 24F74)\n\nCPU model: Apple M1\nThread count: 8 physical cores, 8 logical processors, using up to 8 threads\n\nNon-default parameters:\nTimeLimit  3000\n\nWLS license 2690165 - registered to Optym\nOptimize a model with 5037 rows, 4919 columns and 20697 nonzeros\nModel fingerprint: 0xd7e71984\nVariable types: 102 continuous, 4817 integer (2324 binary)\nCoefficient statistics:\n  Matrix range     [1e-01, 7e+01]\n  Objective range  [1e+00, 1e+02]\n  Bounds range     [1e+00, 2e+02]\n  RHS range        [1e+00, 9e+01]\nUsing branch priorities.\nPresolve removed 3275 rows and 2931 columns\nPresolve time: 0.02s\nPresolved: 1762 rows, 1988 columns, 9835 nonzeros\nVariable types: 98 continuous, 1890 integer (1834 binary)\nFound heuristic solution: objective 4056.0000000\nFound heuristic solution: objective 2009.5000000\n\nRoot relaxation: objective 8.439458e+02, 1031 iterations, 0.02 seconds (0.02 work units)\n\n    Nodes    |    Current Node    |     Objective Bounds      |     Work\n Expl Unexpl |  Obj  Depth IntInf | Incumbent    BestBd   Gap | It/Node Time\n\n     0     0  843.94577    0  175 2009.50000  843.94577  58.0%     -    0s\nH    0     0                    1609.4000000  843.94577  47.6%     -    0s\nH    0     0                    1304.6000000  843.94577  35.3%     -    0s\nH    0     0                    1015.6000000  843.94577  16.9%     -    0s\nH    0     0                    1007.2000000  843.94577  16.2%     -    0s\nH    0     0                     952.4000000  902.93512  5.19%     -    0s\n     0     0  902.93512    0  186  952.40000  902.93512  5.19%     -    0s\n     0     0  903.13512    0  186  952.40000  903.13512  5.17%     -    0s\n     0     0  914.35186    0  208  952.40000  914.35186  3.99%     -    0s\n     0     0  914.35186    0  175  952.40000  914.35186  3.99%     -    0s\n     0     0  921.85253    0  206  952.40000  921.85253  3.21%     -    0s\n     0     0  923.29817    0  186  952.40000  923.29817  3.06%     -    0s\n     0     0  923.39464    0  191  952.40000  923.39464  3.05%     -    0s\n     0     0  923.39464    0  191  952.40000  923.39464  3.05%     -    0s\n     0     0  925.68202    0  236  952.40000  925.68202  2.81%     -    0s\n     0     0  925.95910    0  252  952.40000  925.95910  2.78%     -    0s\n     0     0  925.98585    0  253  952.40000  925.98585  2.77%     -    0s\nH    0     0                     944.0000000  925.98585  1.91%     -    0s\n     0     0  941.63076    0  220  944.00000  941.63076  0.25%     -    0s\n     0     0  941.88739    0  205  944.00000  941.88739  0.22%     -    0s\n     0     0  942.27381    0  214  944.00000  942.27381  0.18%     -    0s\n     0     0  942.31180    0  185  944.00000  942.31180  0.18%     -    0s\n     0     0  942.96250    0  172  944.00000  942.96250  0.11%     -    0s\n     0     0  942.96250    0  165  944.00000  942.96250  0.11%     -    0s\n     0     0  943.03500    0  171  944.00000  943.03500  0.10%     -    0s\n     0     0  943.06133    0  175  944.00000  943.06133  0.10%     -    0s\n     0     0  943.06133    0  175  944.00000  943.06133  0.10%     -    0s\n     0     0  943.13778    0  174  944.00000  943.13778  0.09%     -    0s\n     0     0  943.16302    0  176  944.00000  943.16302  0.09%     -    0s\n     0     0  943.47833    0  152  944.00000  943.47833  0.06%     -    0s\n\nCutting planes:\n  Gomory: 21\n  Cover: 3\n  Implied bound: 20\n  Clique: 8\n  MIR: 24\n  GUB cover: 1\n  Inf proof: 1\n  Zero half: 34\n  RLT: 1\n  Relax-and-lift: 3\n  PSD: 2\n\nExplored 1 nodes (3847 simplex iterations) in 0.54 seconds (0.49 work units)\nThread count was 8 (of 8 available processors)\n\nSolution count 8: 944 952.4 1007.2 ... 4056\n\nOptimal solution found (tolerance 1.00e-04)\nBest objective 9.440000000000e+02, best bound 9.440000000000e+02, gap 0.0000%\n", "jy_opt": {"ParetoEps": 1e-05, "turn_off_time_windows": false, "deactivate_time_graph": false, "deactivate_demand_graph": false, "epsilon": 0.0001, "weight_slack_projector": 1e-05, "weight_compress": 0.01, "num_cust_use": 50, "dem_step_sz": 1, "time_step_sz": 1, "use_compression": 1, "max_iterations_loop_compress_project": 100, "do_round_dist_times": 1, "my_shift_bet_time_win": 0.0001, "num_terms_per_bin_init_construct": 100, "allOneBig_init": 0, "min_inc_2_compress": 1e-05, "save_graph_each_iter": 0, "use_Xpress": 0, "use_ineq": false, "xpress_file_loc": "/Users/julian/Documents/FICO_Xpress_Config/xpauth.xpr", "run_baseline": 0, "verbose": 0, "use_NG_graph": 1, "num_NG": 9, "in_demo_mode": 0, "threshold_split": 0.1, "offset_cost_edge_project": 0, "use_classic_compress": 1, "use_classic_compress_last": 1, "num_thresh_split_projector": 1000, "lplb_solver": 4, "compresss_solver": 0, "proj_solver": 4, "use_julians_custom_lp_solver": 0, "do_ilp": 1, "roundingDiscretization_num_digits_keep": 3, "doExrtraRemovalEdgesLB": 0, "use_gurobi": 1, "max_ILP_time": 3000, "use_fancy_ng_graph": 1, "use_dem_graph": 0, "use_time_graph": 1, "num_multiplys_demand": 0, "DEBUG_ALLOW_DUMB_EDGES": 0, "add_all_ng_split_at_end": 0, "do_split_based_init": 0, "think_compress": [0], "use_delta_in_milp": 1, "use_delta_in_lp": 1, "turn_off_non_active_fg_project": 0, "use_new_valid_ineq": 0, "digit_mult_use": 10, "use_branch_on_g": true, "LAB_MP_ON": 0, "LAB_MP_neigh_use_power": 9, "LAB_MP_num_ineq_use": 10, "do_remove_actions_from_incumbant": true, "ub_use_remove": 944.0, "use_packing_in_construction": 1, "maxVarsAdd_in_ITER": 10, "use_ng_size_init": 0, "do_presolve": 0, "use_diving_ineq": 1, "BEND_MIN_LP_OBJECTIVE_CUT": 0.1, "BEND_USE_RAND": 0, "BEND_MAX_SIZE_CHOOSE_K": 230, "BEND_VAL_STOP_ADDING_CUTS": 100000000, "BEND_MY_SIZES_USE": [9], "NUMERICAL_BEND_OFFSET_COST_CUT": 0.0001, "NUMERICAL_BEND_EPSILON_MULT_PARETO_OBJ": 0.001, "NO_PARETO_NUMERICAL_BEND_OFFSET_COST_CUT": 0, "NO_PARETO_BEND_VAL_STOP_ADDING_CUTS": 1, "NO_PARETO_EPSILON_MAX_VAL_CON": 0.01, "BENDERS_NEIGH_SZ_USE": 9, "Actions_of_given_sol": [], "all_vars_binary": 1, "restore_after_each_step": 1, "use_ng": 1, "compress_solver": 1, "DEBUG_NG_turn_off_CLEAN": false, "max_nodes_split": Infinity}, "output_ilp_solution": {"delta_capRem_0": 17.0, "delta_timeRem_0": 95.0, "delta_capRem_1": 13.0, "delta_timeRem_1": 168.8, "delta_capRem_2": 18.0, "delta_timeRem_2": 108.0, "delta_capRem_3": 4.0, "delta_timeRem_3": 85.0, "delta_capRem_4": 16.0, "delta_timeRem_4": 199.0, "delta_capRem_5": 8.0, "delta_timeRem_5": 138.8, "delta_capRem_6": 10.0, "delta_timeRem_6": 151.8, "delta_capRem_7": 6.0, "delta_timeRem_7": 123.0, "delta_capRem_8": 8.0, "delta_timeRem_8": 119.0, "delta_capRem_9": 6.0, "delta_timeRem_9": 99.1, "delta_capRem_10": 11.0, "delta_timeRem_10": 170.2, "delta_capRem_11": 18.0, "delta_timeRem_11": 175.7, "delta_capRem_12": 3.0, "delta_timeRem_12": 82.1, "delta_capRem_13": 20.0, "delta_timeRem_13": 204.7, "delta_capRem_14": 12.0, "delta_timeRem_14": 152.1, "delta_capRem_15": 10.0, "delta_timeRem_15": 140.1, "delta_capRem_16": 2.0, "delta_timeRem_16": 61.0, "delta_capRem_17": 5.0, "delta_timeRem_17": 123.0, "delta_capRem_18": 9.0, "delta_timeRem_18": 138.3, "delta_capRem_19": 2.0, "delta_timeRem_19": 88.0, "delta_capRem_20": 10.0, "delta_timeRem_20": 153.6, "delta_capRem_21": 7.0, "delta_timeRem_21": 119.6, "delta_capRem_22": 13.0, "delta_timeRem_22": 165.6, "delta_capRem_23": 1.0, "delta_timeRem_23": 62.0, "delta_capRem_24": 2.0, "delta_timeRem_24": 72.0, "delta_capRem_25": 4.0, "delta_timeRem_25": 125.0, "delta_capRem_26": 11.0, "delta_timeRem_26": 176.0, "delta_capRem_27": 5.0, "delta_timeRem_27": 152.0, "delta_capRem_28": 9.0, "delta_timeRem_28": 161.0, "delta_capRem_29": 6.0, "delta_timeRem_29": 166.0, "delta_capRem_30": 8.0, "delta_timeRem_30": 149.0, "delta_capRem_31": 1.0, "delta_timeRem_31": 79.0, "delta_capRem_32": 7.0, "delta_timeRem_32": 188.6, "delta_capRem_33": 6.0, "delta_timeRem_33": 117.0, "delta_capRem_34": 2.0, "delta_timeRem_34": 76.0, "delta_capRem_35": 19.0, "delta_timeRem_35": 186.0, "delta_capRem_36": 3.0, "delta_timeRem_36": 89.6, "delta_capRem_37": 15.0, "delta_timeRem_37": 165.0, "delta_capRem_38": 20.0, "delta_timeRem_38": 203.0, "delta_capRem_39": 8.0, "delta_timeRem_39": 125.0, "delta_capRem_40": 10.0, "delta_timeRem_40": 145.1, "delta_capRem_41": 20.0, "delta_timeRem_41": 206.5, "delta_capRem_42": 5.0, "delta_timeRem_42": 110.0, "delta_capRem_43": 19.0, "delta_timeRem_43": 151.1, "delta_capRem_44": 14.0, "delta_timeRem_44": 186.0, "delta_capRem_45": 5.0, "delta_timeRem_45": 97.0, "delta_capRem_46": 19.0, "delta_timeRem_46": 191.7, "delta_capRem_47": 3.0, "delta_timeRem_47": 89.0, "delta_capRem_48": 3.0, "delta_timeRem_48": 106.0, "delta_capRem_49": 3.0, "delta_timeRem_49": 94.0, "act_0_51": 1, "act_1_6": 1, "act_2_0": 1, "act_3_51": 1, "act_4_44": 1, "act_5_7": 1, "act_6_5": 1, "act_7_45": 1, "act_8_9": 1, "act_9_12": 1, "act_10_21": 1, "act_11_14": 1, "act_12_16": 1, "act_13_46": 1, "act_14_15": 1, "act_15_8": 1, "act_16_51": 1, "act_17_47": 1, "act_18_17": 1, "act_19_23": 1, "act_20_18": 1, "act_21_48": 1, "act_22_20": 1, "act_23_51": 1, "act_24_51": 1, "act_25_31": 1, "act_26_28": 1, "act_27_25": 1, "act_28_30": 1, "act_29_27": 1, "act_30_33": 1, "act_31_51": 1, "act_32_29": 1, "act_33_49": 1, "act_34_51": 1, "act_35_37": 1, "act_36_34": 1, "act_37_40": 1, "act_38_35": 1, "act_39_42": 1, "act_40_39": 1, "act_41_43": 1, "act_42_36": 1, "act_43_2": 1, "act_44_1": 1, "act_45_3": 1, "act_46_11": 1, "act_47_24": 1, "act_48_19": 1, "act_49_51": 1, "act_50_4": 1, "act_50_10": 1, "act_50_13": 1, "act_50_22": 1, "act_50_26": 1, "act_50_32": 1, "act_50_38": 1, "act_50_41": 1}, "Actions_of_given_sol": "none just used source and sink terms", "actions_used": ["act_0_51", "act_1_6", "act_2_0", "act_3_51", "act_4_44", "act_5_7", "act_6_5", "act_7_45", "act_8_9", "act_9_12", "act_10_21", "act_11_14", "act_12_16", "act_13_46", "act_14_15", "act_15_8", "act_16_51", "act_17_47", "act_18_17", "act_19_23", "act_20_18", "act_21_48", "act_22_20", "act_23_51", "act_24_51", "act_25_31", "act_26_28", "act_27_25", "act_28_30", "act_29_27", "act_30_33", "act_31_51", "act_32_29", "act_33_49", "act_34_51", "act_35_37", "act_36_34", "act_37_40", "act_38_35", "act_39_42", "act_40_39", "act_41_43", "act_42_36", "act_43_2", "act_44_1", "act_45_3", "act_46_11", "act_47_24", "act_48_19", "act_49_51", "act_50_4", "act_50_10", "act_50_13", "act_50_22", "act_50_26", "act_50_32", "act_50_38", "act_50_41"], "init_default_solution_is_empty": false, "objective_of_initial_sol": 4055.9999999999995, "my_paths": "[[50, 4, 44, 1, 6, 5, 7, 45, 3, 51], [50, 10, 21, 48, 19, 23, 51], [50, 13, 46, 11, 14, 15, 8, 9, 12, 16, 51], [50, 22, 20, 18, 17, 47, 24, 51], [50, 26, 28, 30, 33, 49, 51], [50, 32, 29, 27, 25, 31, 51], [50, 38, 35, 37, 40, 39, 42, 36, 34, 51], [50, 41, 43, 2, 0, 51]]"}